instances/knapsack/discrete/knapsack_50_2.lp
\ Model knapsack_50_2
\ LP format - for model browsing. Use MPS format to capture full model detail.
\ Signature: 0xe2d4f45d0ac270ee
Minimize
  - 41 x[0] - 70 x[1] - 11 x[2] - 71 x[3] - 57 x[4] - 52 x[5] - 41 x[6]
   - 3 x[7] - 2 x[8] - 54 x[9] - 6 x[10] - 42 x[11] - 22 x[12] - 37 x[13]
   - 90 x[14] - 75 x[15] - 41 x[16] - 13 x[17] - 82 x[18] - 57 x[19]
   - 9 x[20] - 62 x[21] - 83 x[22] - 39 x[23] - 36 x[24] - 82 x[25]
   - 63 x[26] - 23 x[27] - 73 x[28] - 68 x[29] - 68 x[30] - 3 x[31]
   - 47 x[32] - 74 x[33] - 95 x[34] - 24 x[35] - 52 x[36] - 2 x[37]
   - 86 x[38] - 11 x[39] - 55 x[40] - 81 x[41] - 89 x[42] - 82 x[43]
   - 10 x[44] - 86 x[45] - 96 x[46] - 40 x[47] - 80 x[48] - 33 x[49]
Subject To
 primal_upper: 47 x[0] + 23 x[1] + 49 x[2] + 26 x[3] + 51 x[4] + 65 x[5]
   + 76 x[6] + 23 x[7] + 16 x[8] + 93 x[9] + 95 x[10] + 26 x[11] + 95 x[12]
   + 27 x[13] + 84 x[14] + 100 x[15] + 44 x[16] + 95 x[17] + 36 x[18]
   + 45 x[19] + 28 x[20] + 23 x[21] + 83 x[22] + 34 x[23] + 40 x[24]
   + 43 x[25] + 89 x[26] + 3 x[27] + 61 x[28] + 2 x[29] + 5 x[30]
   + 39 x[31] + 87 x[32] + 80 x[33] + 79 x[34] + 32 x[35] + 67 x[36]
   + 72 x[37] + 71 x[38] + 66 x[39] + 46 x[40] + 81 x[41] + 25 x[42]
   + 37 x[43] + 54 x[44] + 2 x[45] + 41 x[46] + 65 x[47] + 2 x[48]
   + 51 x[49] + 4.7 r[0] + 2.3 r[1] + 4.9 r[2] + 2.6 r[3] + 5.1 r[4]
   + 6.5 r[5] + 7.6 r[6] + 2.3 r[7] + 1.6 r[8] + 9.3 r[9] + 9.5 r[10]
   + 2.6 r[11] + 9.5 r[12] + 2.7 r[13] + 8.4 r[14] + 10 r[15] + 4.4 r[16]
   + 9.5 r[17] + 3.6 r[18] + 4.5 r[19] + 2.8 r[20] + 2.3 r[21] + 8.3 r[22]
   + 3.4 r[23] + 4 r[24] + 4.3 r[25] + 8.9 r[26] + 0.3 r[27] + 6.1 r[28]
   + 0.2 r[29] + 0.5 r[30] + 3.9 r[31] + 8.7 r[32] + 8 r[33] + 7.9 r[34]
   + 3.2 r[35] + 6.7 r[36] + 7.2 r[37] + 7.1 r[38] + 6.6 r[39] + 4.6 r[40]
   + 8.1 r[41] + 2.5 r[42] + 3.7 r[43] + 5.4 r[44] + 0.2 r[45] + 4.1 r[46]
   + 6.5 r[47] + 0.2 r[48] + 5.1 r[49] <= 240
 primal_lower: 1.364715465339581 x[0] + 3.395190317799522 x[1]
   + 0.12553811061951 x[2] + 0.8850228446522931 x[3]
   + 1.101613197624002 x[4] + 1.03377808936337 x[5]
   + 3.800628828947009 x[6] + 0.3816572734940022 x[7]
   + 3.016716493970981 x[8] + 2.702373257493984 x[9]
   + 0.8999597289533924 x[10] + 0.5852370923804741 x[11]
   + 4.162484961182744 x[12] + 3.407602196163408 x[13]
   + 1.338645430472964 x[14] + 0.7847493869796057 x[15]
   + 4.583436933922245 x[16] + 1.317996495713676 x[17]
   + 3.855312194127056 x[18] + 3.403251668896485 x[19]
   + 1.794589623411642 x[20] + 2.555099281086575 x[21]
   + 3.147861948079031 x[22] + 4.454106289614008 x[23]
   + 2.986046248185211 x[24] + 2.007700657439001 x[25]
   + 1.510819807253205 x[26] + 2.737796777849314 x[27]
   + 0.4277476854908671 x[28] + 4.031206027174584 x[29]
   + 0.4673079125902795 x[30] + 2.577905580207333 x[31]
   + 4.228324186001108 x[32] + 0.00211353704129543 x[33]
   + 2.443999476579954 x[34] + 3.391426457581587 x[35]
   + 0.1460868451058332 x[36] + 2.303134436143506 x[37]
   + 0.3596894026177359 x[38] + 2.512820056027449 x[39]
   + 2.768161287859968 x[40] + 3.745394073730498 x[41]
   + 3.250260549422455 x[42] + 1.694623978753335 x[43]
   + 0.8188505379492949 x[44] + 2.213312511301377 x[45]
   + 1.69941707562201 x[46] + 1.353361526084272 x[47]
   + 3.869668545990594 x[48] + 3.549129645942746 x[49] + 61 u[0] + 29 u[1]
   + 51 u[2] + 44 u[3] + 49 u[4] + 11 u[5] + 98 u[6] + 21 u[7] + 2 u[8]
   + 19 u[9] + 93 u[10] + 12 u[11] + 57 u[12] + 77 u[13] + 42 u[14]
   + 66 u[15] + 66 u[16] + 81 u[17] + 6 u[18] + 15 u[19] + 58 u[20]
   + 69 u[21] + 89 u[22] + 56 u[23] + 38 u[24] + 33 u[25] + 75 u[26]
   + 25 u[27] + 95 u[28] + 20 u[29] + 19 u[30] + 37 u[31] + 85 u[32]
   + 22 u[33] + 73 u[34] + 26 u[35] + 81 u[36] + 50 u[37] + 89 u[38]
   + 16 u[39] + 12 u[40] + 43 u[41] + 39 u[42] + 55 u[43] + 92 u[44]
   + 28 u[45] + 91 u[46] + 59 u[47] + 32 u[48] + 33 u[49] <= 92508
 mccormick1[0]: - u[0] + r[0] <= 0
 mccormick1[1]: - u[1] + r[1] <= 0
 mccormick1[2]: - u[2] + r[2] <= 0
 mccormick1[3]: - u[3] + r[3] <= 0
 mccormick1[4]: - u[4] + r[4] <= 0
 mccormick1[5]: - u[5] + r[5] <= 0
 mccormick1[6]: - u[6] + r[6] <= 0
 mccormick1[7]: - u[7] + r[7] <= 0
 mccormick1[8]: - u[8] + r[8] <= 0
 mccormick1[9]: - u[9] + r[9] <= 0
 mccormick1[10]: - u[10] + r[10] <= 0
 mccormick1[11]: - u[11] + r[11] <= 0
 mccormick1[12]: - u[12] + r[12] <= 0
 mccormick1[13]: - u[13] + r[13] <= 0
 mccormick1[14]: - u[14] + r[14] <= 0
 mccormick1[15]: - u[15] + r[15] <= 0
 mccormick1[16]: - u[16] + r[16] <= 0
 mccormick1[17]: - u[17] + r[17] <= 0
 mccormick1[18]: - u[18] + r[18] <= 0
 mccormick1[19]: - u[19] + r[19] <= 0
 mccormick1[20]: - u[20] + r[20] <= 0
 mccormick1[21]: - u[21] + r[21] <= 0
 mccormick1[22]: - u[22] + r[22] <= 0
 mccormick1[23]: - u[23] + r[23] <= 0
 mccormick1[24]: - u[24] + r[24] <= 0
 mccormick1[25]: - u[25] + r[25] <= 0
 mccormick1[26]: - u[26] + r[26] <= 0
 mccormick1[27]: - u[27] + r[27] <= 0
 mccormick1[28]: - u[28] + r[28] <= 0
 mccormick1[29]: - u[29] + r[29] <= 0
 mccormick1[30]: - u[30] + r[30] <= 0
 mccormick1[31]: - u[31] + r[31] <= 0
 mccormick1[32]: - u[32] + r[32] <= 0
 mccormick1[33]: - u[33] + r[33] <= 0
 mccormick1[34]: - u[34] + r[34] <= 0
 mccormick1[35]: - u[35] + r[35] <= 0
 mccormick1[36]: - u[36] + r[36] <= 0
 mccormick1[37]: - u[37] + r[37] <= 0
 mccormick1[38]: - u[38] + r[38] <= 0
 mccormick1[39]: - u[39] + r[39] <= 0
 mccormick1[40]: - u[40] + r[40] <= 0
 mccormick1[41]: - u[41] + r[41] <= 0
 mccormick1[42]: - u[42] + r[42] <= 0
 mccormick1[43]: - u[43] + r[43] <= 0
 mccormick1[44]: - u[44] + r[44] <= 0
 mccormick1[45]: - u[45] + r[45] <= 0
 mccormick1[46]: - u[46] + r[46] <= 0
 mccormick1[47]: - u[47] + r[47] <= 0
 mccormick1[48]: - u[48] + r[48] <= 0
 mccormick1[49]: - u[49] + r[49] <= 0
 mccormick2[0]: - x[0] + r[0] <= 0
 mccormick2[1]: - x[1] + r[1] <= 0
 mccormick2[2]: - x[2] + r[2] <= 0
 mccormick2[3]: - x[3] + r[3] <= 0
 mccormick2[4]: - x[4] + r[4] <= 0
 mccormick2[5]: - x[5] + r[5] <= 0
 mccormick2[6]: - x[6] + r[6] <= 0
 mccormick2[7]: - x[7] + r[7] <= 0
 mccormick2[8]: - x[8] + r[8] <= 0
 mccormick2[9]: - x[9] + r[9] <= 0
 mccormick2[10]: - x[10] + r[10] <= 0
 mccormick2[11]: - x[11] + r[11] <= 0
 mccormick2[12]: - x[12] + r[12] <= 0
 mccormick2[13]: - x[13] + r[13] <= 0
 mccormick2[14]: - x[14] + r[14] <= 0
 mccormick2[15]: - x[15] + r[15] <= 0
 mccormick2[16]: - x[16] + r[16] <= 0
 mccormick2[17]: - x[17] + r[17] <= 0
 mccormick2[18]: - x[18] + r[18] <= 0
 mccormick2[19]: - x[19] + r[19] <= 0
 mccormick2[20]: - x[20] + r[20] <= 0
 mccormick2[21]: - x[21] + r[21] <= 0
 mccormick2[22]: - x[22] + r[22] <= 0
 mccormick2[23]: - x[23] + r[23] <= 0
 mccormick2[24]: - x[24] + r[24] <= 0
 mccormick2[25]: - x[25] + r[25] <= 0
 mccormick2[26]: - x[26] + r[26] <= 0
 mccormick2[27]: - x[27] + r[27] <= 0
 mccormick2[28]: - x[28] + r[28] <= 0
 mccormick2[29]: - x[29] + r[29] <= 0
 mccormick2[30]: - x[30] + r[30] <= 0
 mccormick2[31]: - x[31] + r[31] <= 0
 mccormick2[32]: - x[32] + r[32] <= 0
 mccormick2[33]: - x[33] + r[33] <= 0
 mccormick2[34]: - x[34] + r[34] <= 0
 mccormick2[35]: - x[35] + r[35] <= 0
 mccormick2[36]: - x[36] + r[36] <= 0
 mccormick2[37]: - x[37] + r[37] <= 0
 mccormick2[38]: - x[38] + r[38] <= 0
 mccormick2[39]: - x[39] + r[39] <= 0
 mccormick2[40]: - x[40] + r[40] <= 0
 mccormick2[41]: - x[41] + r[41] <= 0
 mccormick2[42]: - x[42] + r[42] <= 0
 mccormick2[43]: - x[43] + r[43] <= 0
 mccormick2[44]: - x[44] + r[44] <= 0
 mccormick2[45]: - x[45] + r[45] <= 0
 mccormick2[46]: - x[46] + r[46] <= 0
 mccormick2[47]: - x[47] + r[47] <= 0
 mccormick2[48]: - x[48] + r[48] <= 0
 mccormick2[49]: - x[49] + r[49] <= 0
 mccormick3[0]: x[0] + u[0] - r[0] <= 1
 mccormick3[1]: x[1] + u[1] - r[1] <= 1
 mccormick3[2]: x[2] + u[2] - r[2] <= 1
 mccormick3[3]: x[3] + u[3] - r[3] <= 1
 mccormick3[4]: x[4] + u[4] - r[4] <= 1
 mccormick3[5]: x[5] + u[5] - r[5] <= 1
 mccormick3[6]: x[6] + u[6] - r[6] <= 1
 mccormick3[7]: x[7] + u[7] - r[7] <= 1
 mccormick3[8]: x[8] + u[8] - r[8] <= 1
 mccormick3[9]: x[9] + u[9] - r[9] <= 1
 mccormick3[10]: x[10] + u[10] - r[10] <= 1
 mccormick3[11]: x[11] + u[11] - r[11] <= 1
 mccormick3[12]: x[12] + u[12] - r[12] <= 1
 mccormick3[13]: x[13] + u[13] - r[13] <= 1
 mccormick3[14]: x[14] + u[14] - r[14] <= 1
 mccormick3[15]: x[15] + u[15] - r[15] <= 1
 mccormick3[16]: x[16] + u[16] - r[16] <= 1
 mccormick3[17]: x[17] + u[17] - r[17] <= 1
 mccormick3[18]: x[18] + u[18] - r[18] <= 1
 mccormick3[19]: x[19] + u[19] - r[19] <= 1
 mccormick3[20]: x[20] + u[20] - r[20] <= 1
 mccormick3[21]: x[21] + u[21] - r[21] <= 1
 mccormick3[22]: x[22] + u[22] - r[22] <= 1
 mccormick3[23]: x[23] + u[23] - r[23] <= 1
 mccormick3[24]: x[24] + u[24] - r[24] <= 1
 mccormick3[25]: x[25] + u[25] - r[25] <= 1
 mccormick3[26]: x[26] + u[26] - r[26] <= 1
 mccormick3[27]: x[27] + u[27] - r[27] <= 1
 mccormick3[28]: x[28] + u[28] - r[28] <= 1
 mccormick3[29]: x[29] + u[29] - r[29] <= 1
 mccormick3[30]: x[30] + u[30] - r[30] <= 1
 mccormick3[31]: x[31] + u[31] - r[31] <= 1
 mccormick3[32]: x[32] + u[32] - r[32] <= 1
 mccormick3[33]: x[33] + u[33] - r[33] <= 1
 mccormick3[34]: x[34] + u[34] - r[34] <= 1
 mccormick3[35]: x[35] + u[35] - r[35] <= 1
 mccormick3[36]: x[36] + u[36] - r[36] <= 1
 mccormick3[37]: x[37] + u[37] - r[37] <= 1
 mccormick3[38]: x[38] + u[38] - r[38] <= 1
 mccormick3[39]: x[39] + u[39] - r[39] <= 1
 mccormick3[40]: x[40] + u[40] - r[40] <= 1
 mccormick3[41]: x[41] + u[41] - r[41] <= 1
 mccormick3[42]: x[42] + u[42] - r[42] <= 1
 mccormick3[43]: x[43] + u[43] - r[43] <= 1
 mccormick3[44]: x[44] + u[44] - r[44] <= 1
 mccormick3[45]: x[45] + u[45] - r[45] <= 1
 mccormick3[46]: x[46] + u[46] - r[46] <= 1
 mccormick3[47]: x[47] + u[47] - r[47] <= 1
 mccormick3[48]: x[48] + u[48] - r[48] <= 1
 mccormick3[49]: x[49] + u[49] - r[49] <= 1
Bounds
Binaries
 x[0] x[1] x[2] x[3] x[4] x[5] x[6] x[7] x[8] x[9] x[10] x[11] x[12] x[13]
 x[14] x[15] x[16] x[17] x[18] x[19] x[20] x[21] x[22] x[23] x[24] x[25]
 x[26] x[27] x[28] x[29] x[30] x[31] x[32] x[33] x[34] x[35] x[36] x[37]
 x[38] x[39] x[40] x[41] x[42] x[43] x[44] x[45] x[46] x[47] x[48] x[49]
 u[0] u[1] u[2] u[3] u[4] u[5] u[6] u[7] u[8] u[9] u[10] u[11] u[12] u[13]
 u[14] u[15] u[16] u[17] u[18] u[19] u[20] u[21] u[22] u[23] u[24] u[25]
 u[26] u[27] u[28] u[29] u[30] u[31] u[32] u[33] u[34] u[35] u[36] u[37]
 u[38] u[39] u[40] u[41] u[42] u[43] u[44] u[45] u[46] u[47] u[48] u[49]
 r[0] r[1] r[2] r[3] r[4] r[5] r[6] r[7] r[8] r[9] r[10] r[11] r[12] r[13]
 r[14] r[15] r[16] r[17] r[18] r[19] r[20] r[21] r[22] r[23] r[24] r[25]
 r[26] r[27] r[28] r[29] r[30] r[31] r[32] r[33] r[34] r[35] r[36] r[37]
 r[38] r[39] r[40] r[41] r[42] r[43] r[44] r[45] r[46] r[47] r[48] r[49]
End
