instances/knapsack/discrete_knapsack_uncertainty/knapsack_50_2.kp
91064
50
240

47 4.7 41
23 2.3 70
49 4.9 11
26 2.6 71
51 5.1 57
65 6.5 52
76 7.6 41
23 2.3 3
16 1.6 2
93 9.3 54
95 9.5 6
26 2.6 42
95 9.5 22
27 2.7 37
84 8.4 90
100 10.0 75
44 4.4 41
95 9.5 13
36 3.6 82
45 4.5 57
28 2.8 9
23 2.3 62
83 8.3 83
34 3.4 39
40 4.0 36
43 4.3 82
89 8.9 63
3 0.3 23
61 6.1 73
2 0.2 68
5 0.5 68
39 3.9 3
87 8.7 47
80 8.0 74
79 7.9 95
32 3.2 24
67 6.7 52
72 7.2 2
71 7.1 86
66 6.6 11
46 4.6 55
81 8.1 81
25 2.5 89
37 3.7 82
54 5.4 10
2 0.2 86
41 4.1 96
65 6.5 40
2 0.2 80
51 5.1 33

92508
232

[1.364715465339581 3.3951903177995217 0.12553811061950995 0.8850228446522931 1.1016131976240022 1.0337780893633701 3.800628828947009 0.38165727349400225 3.016716493970981 2.7023732574939836 0.8999597289533924 0.585237092380474 4.162484961182744 3.4076021961634075 1.3386454304729638 0.7847493869796057 4.583436933922245 1.3179964957136763 3.855312194127056 3.4032516688964853 1.7945896234116419 2.5550992810865747 3.1478619480790306 4.454106289614008 2.9860462481852106 2.007700657439001 1.5108198072532049 2.737796777849314 0.42774768549086706 4.0312060271745835 0.46730791259027954 2.5779055802073327 4.228324186001108 0.00211353704129543 2.4439994765799535 3.391426457581587 0.1460868451058332 2.3031344361435058 0.35968940261773585 2.5128200560274494 2.768161287859968 3.7453940737304983 3.250260549422455 1.694623978753335 0.8188505379492949 2.2133125113013774 1.6994170756220102 1.3533615260842724 3.8696685459905935 3.5491296459427457]

[61 29 51 44 49 11 98 21 2 19 93 12 57 77 42 66 66 81 6 15 58 69 89 56 38 33 75 25 95 20 19 37 85 22 73 26 81 50 89 16 12 43 39 55 92 28 91 59 32 33]
